multiobj/instances/uniform/Ter.6.2.0.40.2.in
6 2
0 555 650 868 523 851 
555 0 135 334 321 333 
650 135 0 169 904 551 
868 334 169 0 490 933 
523 321 904 490 0 256 
851 333 551 933 256 0 
0 571 656 634 342 517 
571 0 715 74 833 76 
656 715 0 165 639 312 
634 74 165 0 73 720 
342 833 639 73 0 685 
517 76 312 720 685 0 
0 877 998 971 527 926 
877 0 766 99 601 779 
998 766 0 413 622 396 
971 99 413 0 557 373 
527 601 622 557 0 227 
926 779 396 373 227 0 
