multiobj/solutions/Ter.6.2.0.40.2.out
9 2
5 2 1 0 3 4 
6117748 9396076 
1 5 0 2 4 3 
6182506 9315648 
1 4 0 3 5 2 
6183996 9240846 
1 4 5 3 0 2 
6193406 8891430 
4 3 1 0 2 5 
6195072 8782280 
4 3 1 5 2 0 
6318778 8596962 
1 3 2 5 0 4 
6378670 8287968 
1 4 5 2 0 3 
6524324 8153612 
1 4 3 2 0 5 
7246110 8130542 
